(set-logic QF_S)
(set-option :strings-exp true)
(set-option :produce-models true)
(declare-fun sigmaStar_0 () String)
(declare-fun literal_6 () String)
(assert (= literal_6 "\x3c\x62\x75\x74\x74\x6f\x6e\x20\x74\x79\x70\x65\x3d\x22\x62\x75\x74\x74\x6f\x6e\x22\x20\x6e\x61\x6d\x65\x3d\x22\x62\x72\x6f\x77\x73\x65\x22\x20\x6f\x6e\x63\x6c\x69\x63\x6b\x3d\x22\x72\x65\x74\x75\x72\x6e\x20\x6f\x6e\x42\x72\x6f\x77\x73\x65\x28\x29\x3b\x22\x3e\x62\x72\x6f\x77\x73\x65\x2e\x2e\x2e\x3c\x2f\x62\x75\x74\x74\x6f\x6e\x3e"))
(assert (str.in.re literal_6 (re.++ (re.* re.allchar) (re.++ (str.to.re "\x5c\x3c\x53\x43\x52\x49\x50\x54") (re.* re.allchar)))))
(check-sat)
(get-model)
